solution status: optimal solution found
objective value:                              36416.9
assigned$A#1$L                                      1 	(obj:0)
assigned$A#2$L                                      1 	(obj:0)
assigned$A#3$L                                      1 	(obj:0)
assigned$A#4$L                                      1 	(obj:0)
assigned$A#7$L                                      1 	(obj:-2.6)
assigned$A#8$L                                      1 	(obj:-2.6)
assigned$A#12$L                                     1 	(obj:0)
assigned$A#13$L                                     1 	(obj:0)
assigned$A#14$L                                     1 	(obj:0)
assigned$A#15$L                                     1 	(obj:0)
assigned$A#16$L                                     1 	(obj:0)
assigned$A#19$E                                     1 	(obj:0)
assigned$A#20$L                                     1 	(obj:0)
assigned$A#23$L                                     1 	(obj:-1.3)
assigned$A#24$L                                     1 	(obj:0)
assigned$A#25$L                                     1 	(obj:0)
assigned$A#26$L                                     1 	(obj:0)
assigned$A#27$L                                     1 	(obj:0)
assigned$B#1$E                                      1 	(obj:0)
assigned$B#2$E                                      1 	(obj:0)
assigned$B#5$E                                      1 	(obj:0)
assigned$B#6$E                                      1 	(obj:0)
assigned$B#7$E                                      1 	(obj:-2.6)
assigned$B#8$E                                      1 	(obj:-2.6)
assigned$B#9$E                                      1 	(obj:-2.6)
assigned$B#12$E                                     1 	(obj:0)
assigned$B#13$E                                     1 	(obj:0)
assigned$B#14$E                                     1 	(obj:0)
assigned$B#15$E                                     1 	(obj:0)
assigned$B#19$E                                     1 	(obj:0)
assigned$B#20$E                                     1 	(obj:0)
assigned$B#21$E                                     1 	(obj:0)
assigned$B#24$E                                     1 	(obj:0)
assigned$B#25$E                                     1 	(obj:-2.6)
assigned$B#26$E                                     1 	(obj:0)
assigned$B#27$E                                     1 	(obj:0)
assigned$C#1$E                                      1 	(obj:-3.9)
assigned$C#2$E                                      1 	(obj:-3.9)
assigned$C#6$E                                      1 	(obj:-3.9)
assigned$C#7$E                                      1 	(obj:-3.9)
assigned$C#8$E                                      1 	(obj:-3.9)
assigned$C#11$E                                     1 	(obj:0)
assigned$C#12$L                                     1 	(obj:0)
assigned$C#15$E                                     1 	(obj:0)
assigned$C#16$L                                     1 	(obj:-2.6)
assigned$C#17$L                                     1 	(obj:-2.6)
assigned$C#18$L                                     1 	(obj:0)
assigned$C#19$L                                     1 	(obj:0)
assigned$C#23$E                                     1 	(obj:0)
assigned$C#24$E                                     1 	(obj:0)
assigned$C#25$E                                     1 	(obj:-2.6)
assigned$C#26$E                                     1 	(obj:-2.6)
assigned$C#27$E                                     1 	(obj:0)
assigned$D#0$L                                      1 	(obj:0)
assigned$D#3$E                                      1 	(obj:0)
assigned$D#4$E                                      1 	(obj:0)
assigned$D#7$E                                      1 	(obj:-2.6)
assigned$D#8$E                                      1 	(obj:-2.6)
assigned$D#9$E                                      1 	(obj:-2.6)
assigned$D#10$E                                     1 	(obj:-2.6)
assigned$D#11$E                                     1 	(obj:-2.6)
assigned$D#15$E                                     1 	(obj:0)
assigned$D#16$E                                     1 	(obj:0)
assigned$D#17$E                                     1 	(obj:0)
assigned$D#18$E                                     1 	(obj:0)
assigned$D#19$E                                     1 	(obj:-1.3)
assigned$D#22$E                                     1 	(obj:-1.3)
assigned$D#23$E                                     1 	(obj:-1.3)
assigned$D#24$E                                     1 	(obj:0)
assigned$D#25$L                                     1 	(obj:0)
assigned$D#26$L                                     1 	(obj:0)
assigned$E#2$E                                      1 	(obj:-3.9)
assigned$E#3$E                                      1 	(obj:-3.9)
assigned$E#4$E                                      1 	(obj:-3.9)
assigned$E#5$E                                      1 	(obj:-3.9)
assigned$E#8$E                                      1 	(obj:0)
assigned$E#9$L                                      1 	(obj:0)
assigned$E#10$L                                     1 	(obj:0)
assigned$E#13$E                                     1 	(obj:0)
assigned$E#14$E                                     1 	(obj:0)
assigned$E#15$E                                     1 	(obj:0)
assigned$E#16$E                                     1 	(obj:0)
assigned$E#19$E                                     1 	(obj:0)
assigned$E#20$E                                     1 	(obj:0)
assigned$E#21$L                                     1 	(obj:0)
assigned$E#22$L                                     1 	(obj:0)
assigned$E#25$E                                     1 	(obj:0)
assigned$E#26$E                                     1 	(obj:0)
assigned$E#27$E                                     1 	(obj:0)
assigned$F#0$L                                      1 	(obj:0)
assigned$F#1$L                                      1 	(obj:0)
assigned$F#2$L                                      1 	(obj:0)
assigned$F#3$L                                      1 	(obj:1.3)
assigned$F#11$L                                     1 	(obj:0)
assigned$F#12$L                                     1 	(obj:0)
assigned$F#13$L                                     1 	(obj:-3.9)
assigned$F#14$L                                     1 	(obj:-3.9)
assigned$F#15$L                                     1 	(obj:-3.9)
assigned$F#18$L                                     1 	(obj:0)
assigned$F#19$L                                     1 	(obj:0)
assigned$F#23$L                                     1 	(obj:0)
assigned$F#24$L                                     1 	(obj:0)
assigned$F#25$L                                     1 	(obj:0)
assigned$F#26$L                                     1 	(obj:0)
assigned$F#27$L                                     1 	(obj:0)
assigned$G#2$L                                      1 	(obj:0)
assigned$G#3$L                                      1 	(obj:0)
assigned$G#4$L                                      1 	(obj:0)
assigned$G#7$L                                      1 	(obj:-3.9)
assigned$G#8$L                                      1 	(obj:-3.9)
assigned$G#9$L                                      1 	(obj:-3.9)
assigned$G#10$L                                     1 	(obj:-3.9)
assigned$G#11$L                                     1 	(obj:0)
assigned$G#14$L                                     1 	(obj:0)
assigned$G#15$L                                     1 	(obj:0)
assigned$G#16$L                                     1 	(obj:0)
assigned$G#17$L                                     1 	(obj:-3.9)
assigned$G#18$L                                     1 	(obj:-3.9)
assigned$G#21$E                                     1 	(obj:0)
assigned$G#22$E                                     1 	(obj:0)
assigned$G#23$E                                     1 	(obj:0)
assigned$G#24$L                                     1 	(obj:0)
assigned$G#27$E                                     1 	(obj:0)
assigned$H#0$E                                      1 	(obj:0)
assigned$H#1$L                                      1 	(obj:0)
assigned$H#2$L                                      1 	(obj:0)
assigned$H#5$L                                      1 	(obj:0)
assigned$H#6$L                                      1 	(obj:0)
assigned$H#7$L                                      1 	(obj:0)
assigned$H#8$L                                      1 	(obj:0)
assigned$H#13$E                                     1 	(obj:-3.9)
assigned$H#14$L                                     1 	(obj:0)
assigned$H#15$L                                     1 	(obj:0)
assigned$H#16$L                                     1 	(obj:0)
assigned$H#19$L                                     1 	(obj:0)
assigned$H#20$L                                     1 	(obj:0)
assigned$H#23$E                                     1 	(obj:0)
assigned$H#24$L                                     1 	(obj:0)
assigned$H#25$L                                     1 	(obj:0)
assigned$H#26$L                                     1 	(obj:0)
assigned$H#27$L                                     1 	(obj:0)
assigned$I#0$E                                      1 	(obj:-2.6)
assigned$I#1$E                                      1 	(obj:-2.6)
assigned$I#2$E                                      1 	(obj:-2.6)
assigned$I#5$L                                      1 	(obj:0)
assigned$I#6$L                                      1 	(obj:0)
assigned$I#10$L                                     1 	(obj:-2.6)
assigned$I#11$L                                     1 	(obj:-2.6)
assigned$I#14$E                                     1 	(obj:0)
assigned$I#15$E                                     1 	(obj:0)
assigned$I#16$E                                     1 	(obj:0)
assigned$I#17$E                                     1 	(obj:0)
assigned$I#21$E                                     1 	(obj:-2.6)
assigned$I#22$E                                     1 	(obj:-2.6)
assigned$I#23$E                                     1 	(obj:-2.6)
assigned$I#24$E                                     1 	(obj:0)
assigned$I#27$L                                     1 	(obj:0)
assigned$J#0$L                                      1 	(obj:0)
assigned$J#4$L                                      1 	(obj:0)
assigned$J#5$L                                      1 	(obj:0)
assigned$J#6$L                                      1 	(obj:0)
assigned$J#9$E                                      1 	(obj:0)
assigned$J#10$E                                     1 	(obj:0)
assigned$J#11$E                                     1 	(obj:0)
assigned$J#12$E                                     1 	(obj:0)
assigned$J#13$E                                     1 	(obj:0)
assigned$J#16$E                                     1 	(obj:0)
assigned$J#17$E                                     1 	(obj:0)
assigned$J#18$E                                     1 	(obj:0)
assigned$J#19$L                                     1 	(obj:0)
assigned$J#22$L                                     1 	(obj:0)
assigned$J#23$L                                     1 	(obj:0)
assigned$J#26$E                                     1 	(obj:0)
assigned$J#27$L                                     1 	(obj:0)
workingSched$A#1                                    1 	(obj:0)
workingSched$A#2                                    1 	(obj:0)
workingSched$A#3                                    1 	(obj:0)
workingSched$A#4                                    1 	(obj:0)
workingSched$A#7                                    1 	(obj:0)
workingSched$A#8                                    1 	(obj:0)
workingSched$A#12                                   1 	(obj:0)
workingSched$A#13                                   1 	(obj:0)
workingSched$A#14                                   1 	(obj:0)
workingSched$A#15                                   1 	(obj:0)
workingSched$A#16                                   1 	(obj:0)
workingSched$A#19                                   1 	(obj:0)
workingSched$A#20                                   1 	(obj:0)
workingSched$A#23                                   1 	(obj:0)
workingSched$A#24                                   1 	(obj:0)
workingSched$A#25                                   1 	(obj:0)
workingSched$A#26                                   1 	(obj:0)
workingSched$A#27                                   1 	(obj:0)
workingSched$B#1                                    1 	(obj:0)
workingSched$B#2                                    1 	(obj:0)
workingSched$B#5                                    1 	(obj:0)
workingSched$B#6                                    1 	(obj:0)
workingSched$B#7                                    1 	(obj:0)
workingSched$B#8                                    1 	(obj:0)
workingSched$B#9                                    1 	(obj:0)
workingSched$B#12                                   1 	(obj:0)
workingSched$B#13                                   1 	(obj:0)
workingSched$B#14                                   1 	(obj:0)
workingSched$B#15                                   1 	(obj:0)
workingSched$B#19                                   1 	(obj:0)
workingSched$B#20                                   1 	(obj:0)
workingSched$B#21                                   1 	(obj:0)
workingSched$B#24                                   1 	(obj:0)
workingSched$B#25                                   1 	(obj:0)
workingSched$B#26                                   1 	(obj:0)
workingSched$B#27                                   1 	(obj:0)
workingSched$C#1                                    1 	(obj:0)
workingSched$C#2                                    1 	(obj:0)
workingSched$C#6                                    1 	(obj:0)
workingSched$C#7                                    1 	(obj:0)
workingSched$C#8                                    1 	(obj:0)
workingSched$C#11                                   1 	(obj:0)
workingSched$C#12                                   1 	(obj:0)
workingSched$C#15                                   1 	(obj:0)
workingSched$C#16                                   1 	(obj:0)
workingSched$C#17                                   1 	(obj:0)
workingSched$C#18                                   1 	(obj:0)
workingSched$C#19                                   1 	(obj:0)
workingSched$C#23                                   1 	(obj:0)
workingSched$C#24                                   1 	(obj:0)
workingSched$C#25                                   1 	(obj:0)
workingSched$C#26                                   1 	(obj:0)
workingSched$C#27                                   1 	(obj:0)
workingSched$D#0                                    1 	(obj:0)
workingSched$D#3                                    1 	(obj:0)
workingSched$D#4                                    1 	(obj:0)
workingSched$D#7                                    1 	(obj:0)
workingSched$D#8                                    1 	(obj:0)
workingSched$D#9                                    1 	(obj:0)
workingSched$D#10                                   1 	(obj:0)
workingSched$D#11                                   1 	(obj:0)
workingSched$D#15                                   1 	(obj:0)
workingSched$D#16                                   1 	(obj:0)
workingSched$D#17                                   1 	(obj:0)
workingSched$D#18                                   1 	(obj:0)
workingSched$D#19                                   1 	(obj:0)
workingSched$D#22                                   1 	(obj:0)
workingSched$D#23                                   1 	(obj:0)
workingSched$D#24                                   1 	(obj:0)
workingSched$D#25                                   1 	(obj:0)
workingSched$D#26                                   1 	(obj:0)
workingSched$E#2                                    1 	(obj:0)
workingSched$E#3                                    1 	(obj:0)
workingSched$E#4                                    1 	(obj:0)
workingSched$E#5                                    1 	(obj:0)
workingSched$E#8                                    1 	(obj:0)
workingSched$E#9                                    1 	(obj:0)
workingSched$E#10                                   1 	(obj:0)
workingSched$E#13                                   1 	(obj:0)
workingSched$E#14                                   1 	(obj:0)
workingSched$E#15                                   1 	(obj:0)
workingSched$E#16                                   1 	(obj:0)
workingSched$E#19                                   1 	(obj:0)
workingSched$E#20                                   1 	(obj:0)
workingSched$E#21                                   1 	(obj:0)
workingSched$E#22                                   1 	(obj:0)
workingSched$E#25                                   1 	(obj:0)
workingSched$E#26                                   1 	(obj:0)
workingSched$E#27                                   1 	(obj:0)
workingSched$F#0                                    1 	(obj:0)
workingSched$F#1                                    1 	(obj:0)
workingSched$F#2                                    1 	(obj:0)
workingSched$F#3                                    1 	(obj:0)
workingSched$F#11                                   1 	(obj:0)
workingSched$F#12                                   1 	(obj:0)
workingSched$F#13                                   1 	(obj:0)
workingSched$F#14                                   1 	(obj:0)
workingSched$F#15                                   1 	(obj:0)
workingSched$F#18                                   1 	(obj:0)
workingSched$F#19                                   1 	(obj:0)
workingSched$F#23                                   1 	(obj:0)
workingSched$F#24                                   1 	(obj:0)
workingSched$F#25                                   1 	(obj:0)
workingSched$F#26                                   1 	(obj:0)
workingSched$F#27                                   1 	(obj:0)
workingSched$G#2                                    1 	(obj:0)
workingSched$G#3                                    1 	(obj:0)
workingSched$G#4                                    1 	(obj:0)
workingSched$G#7                                    1 	(obj:0)
workingSched$G#8                                    1 	(obj:0)
workingSched$G#9                                    1 	(obj:0)
workingSched$G#10                                   1 	(obj:0)
workingSched$G#11                                   1 	(obj:0)
workingSched$G#14                                   1 	(obj:0)
workingSched$G#15                                   1 	(obj:0)
workingSched$G#16                                   1 	(obj:0)
workingSched$G#17                                   1 	(obj:0)
workingSched$G#18                                   1 	(obj:0)
workingSched$G#21                                   1 	(obj:0)
workingSched$G#22                                   1 	(obj:0)
workingSched$G#23                                   1 	(obj:0)
workingSched$G#24                                   1 	(obj:0)
workingSched$G#27                                   1 	(obj:0)
workingSched$H#0                                    1 	(obj:0)
workingSched$H#1                                    1 	(obj:0)
workingSched$H#2                                    1 	(obj:0)
workingSched$H#5                                    1 	(obj:0)
workingSched$H#6                                    1 	(obj:0)
workingSched$H#7                                    1 	(obj:0)
workingSched$H#8                                    1 	(obj:0)
workingSched$H#13                                   1 	(obj:0)
workingSched$H#14                                   1 	(obj:0)
workingSched$H#15                                   1 	(obj:0)
workingSched$H#16                                   1 	(obj:0)
workingSched$H#19                                   1 	(obj:0)
workingSched$H#20                                   1 	(obj:0)
workingSched$H#23                                   1 	(obj:0)
workingSched$H#24                                   1 	(obj:0)
workingSched$H#25                                   1 	(obj:0)
workingSched$H#26                                   1 	(obj:0)
workingSched$H#27                                   1 	(obj:0)
workingSched$I#0                                    1 	(obj:0)
workingSched$I#1                                    1 	(obj:0)
workingSched$I#2                                    1 	(obj:0)
workingSched$I#5                                    1 	(obj:0)
workingSched$I#6                                    1 	(obj:0)
workingSched$I#10                                   1 	(obj:0)
workingSched$I#11                                   1 	(obj:0)
workingSched$I#14                                   1 	(obj:0)
workingSched$I#15                                   1 	(obj:0)
workingSched$I#16                                   1 	(obj:0)
workingSched$I#17                                   1 	(obj:0)
workingSched$I#21                                   1 	(obj:0)
workingSched$I#22                                   1 	(obj:0)
workingSched$I#23                                   1 	(obj:0)
workingSched$I#24                                   1 	(obj:0)
workingSched$I#27                                   1 	(obj:0)
workingSched$J#0                                    1 	(obj:0)
workingSched$J#4                                    1 	(obj:0)
workingSched$J#5                                    1 	(obj:0)
workingSched$J#6                                    1 	(obj:0)
workingSched$J#9                                    1 	(obj:0)
workingSched$J#10                                   1 	(obj:0)
workingSched$J#11                                   1 	(obj:0)
workingSched$J#12                                   1 	(obj:0)
workingSched$J#13                                   1 	(obj:0)
workingSched$J#16                                   1 	(obj:0)
workingSched$J#17                                   1 	(obj:0)
workingSched$J#18                                   1 	(obj:0)
workingSched$J#19                                   1 	(obj:0)
workingSched$J#22                                   1 	(obj:0)
workingSched$J#23                                   1 	(obj:0)
workingSched$J#26                                   1 	(obj:0)
workingSched$J#27                                   1 	(obj:0)
z#11$E                                              1 	(obj:1300)
z#13$E                                              1 	(obj:1300)
z#13$L                                              1 	(obj:1300)
z#19$E                                              2 	(obj:1300)
z#21$E                                              1 	(obj:1300)
z#21$L                                              3 	(obj:1300)
z#25$E                                              1 	(obj:1300)
z#25$L                                              2 	(obj:1300)
z#27$L                                             16 	(obj:1300)
